p edge 10 45
e 1 2 2
e 1 3 -4
e 1 4 -3
e 1 5 0
e 1 6 4
e 1 7 3
e 1 8 1
e 1 9 2
e 1 10 4
e 2 3 -1
e 2 4 -2
e 2 5 0
e 2 6 -3
e 2 7 1
e 2 8 0
e 2 9 -2
e 2 10 0
e 3 4 -2
e 3 5 -2
e 3 6 1
e 3 7 1
e 3 8 1
e 3 9 5
e 3 10 4
e 4 5 -3
e 4 6 2
e 4 7 -2
e 4 8 5
e 4 9 0
e 4 10 -2
e 5 6 -4
e 5 7 -4
e 5 8 1
e 5 9 4
e 5 10 4
e 6 7 -4
e 6 8 -3
e 6 9 -2
e 6 10 -2
e 7 8 -1
e 7 9 -1
e 7 10 2
e 8 9 4
e 8 10 -1
e 9 10 2
